solution status: optimal solution found
objective value:                     172108.334469392
d11(0,0)                                            1 	(obj:0)
d11(1,1)                                            1 	(obj:0)
d11(1,2)                                            1 	(obj:0)
d11(2,3)                                            1 	(obj:0)
d11(2,4)                                            1 	(obj:0)
d11(2,5)                                            1 	(obj:0)
d11(2,6)                                            1 	(obj:0)
d11(3,7)                                            1 	(obj:0)
d11(3,8)                                            1 	(obj:0)
d11(3,9)                                            1 	(obj:0)
d11(3,11)                                           1 	(obj:0)
d11(3,12)                                           1 	(obj:0)
d11(3,13)                                           1 	(obj:0)
d11(3,14)                                           1 	(obj:0)
d11(4,15)                                           1 	(obj:0)
d11(4,17)                                           1 	(obj:0)
d11(4,19)                                           1 	(obj:0)
d11(4,21)                                           1 	(obj:0)
d11(4,23)                                           1 	(obj:0)
d11(4,25)                                           1 	(obj:0)
d11(4,27)                                           1 	(obj:0)
d11(4,29)                                           1 	(obj:0)
d12(4,16)                                           1 	(obj:0)
d12(4,18)                                           1 	(obj:0)
d12(4,20)                                           1 	(obj:0)
d12(4,22)                                           1 	(obj:0)
d12(4,24)                                           1 	(obj:0)
d12(4,26)                                           1 	(obj:0)
d12(4,28)                                           1 	(obj:0)
d12(4,30)                                           1 	(obj:0)
d21(2,3)                                            1 	(obj:0)
d21(3,7)                                            1 	(obj:0)
d21(3,8)                                            1 	(obj:0)
d21(3,9)                                            1 	(obj:0)
d21(3,11)                                           1 	(obj:0)
d21(4,15)                                           1 	(obj:0)
d21(4,16)                                           1 	(obj:0)
d21(4,17)                                           1 	(obj:0)
d21(4,18)                                           1 	(obj:0)
d21(4,19)                                           1 	(obj:0)
d21(4,20)                                           1 	(obj:0)
d21(4,23)                                           1 	(obj:0)
d21(4,24)                                           1 	(obj:0)
y2(4,16)                             1385.48851144938 	(obj:0)
y2(4,18)                             1385.48851144938 	(obj:0)
y2(4,20)                             1385.48851144938 	(obj:0)
y2(4,22)                             1385.48851144938 	(obj:0)
y2(4,24)                             1385.48851144938 	(obj:0)
y2(4,26)                             1385.48851144938 	(obj:0)
y2(4,28)                             1385.48851144938 	(obj:0)
y2(4,30)                             1385.48851144938 	(obj:0)
STE(1,1)                              3464.9999999995 	(obj:0)
STE(0,0)                                         7875 	(obj:0)
STE(1,2)                             5123.24989888832 	(obj:0)
STE(2,3)                             1176.75010111069 	(obj:0)
STE(2,4)                              2834.9999999995 	(obj:0)
STE(2,5)                              2834.9999999995 	(obj:0)
STE(2,6)                             4493.24989888832 	(obj:0)
STE(3,7)                            -1111.49979777813 	(obj:0)
STE(3,8)                             546.750101110686 	(obj:0)
STE(3,9)                             546.750101110686 	(obj:0)
STE(3,10)                             2204.9999999995 	(obj:0)
STE(3,11)                            546.750101110686 	(obj:0)
STE(3,12)                             2204.9999999995 	(obj:0)
STE(3,13)                             2204.9999999995 	(obj:0)
STE(3,14)                            3863.24989888832 	(obj:0)
STE(4,15)                           -1741.49979777764 	(obj:0)
STE(4,16)                           -425.285711901222 	(obj:0)
STE(4,17)                           -83.2498988888228 	(obj:0)
STE(4,18)                             1232.9641869876 	(obj:0)
STE(4,19)                           -83.2498988888226 	(obj:0)
STE(4,20)                             1232.9641869876 	(obj:0)
STE(4,21)                                        1575 	(obj:0)
STE(4,22)                            2891.21408587641 	(obj:0)
STE(4,23)                           -83.2498988888226 	(obj:0)
STE(4,24)                             1232.9641869876 	(obj:0)
STE(4,25)                                        1575 	(obj:0)
STE(4,26)                            2891.21408587641 	(obj:0)
STE(4,27)                                        1575 	(obj:0)
STE(4,28)                            2891.21408587641 	(obj:0)
STE(4,29)                            3233.24989888881 	(obj:0)
STE(4,30)                            4549.46398476523 	(obj:0)
y1(3,11)                             1492.42490899994 	(obj:0)
y1(3,13)                             1492.42490899994 	(obj:0)
AVE(1)                               3265.91696791192 	(obj:0)
AVE(2)                               3332.74178563731 	(obj:0)
AVE(3)                               3444.11697932125 	(obj:0)
WB(4)                                3399.56511093778 	(obj:0)
AVE(4)                               3399.56511093778 	(obj:0)
WG(1)                                3265.91696791192 	(obj:10)
WG(2)                                3332.74178563731 	(obj:10)
WG(3)                                3444.11697932115 	(obj:10)
BG(1)                                2878.92154229266 	(obj:10)
BG(2)                                863.550713342256 	(obj:10)
BG(3)                                752.175519658414 	(obj:10)
BG(4)                                2673.40993877509 	(obj:10)
y1(1,1)                              3402.00000000045 	(obj:0)
y1(1,2)                              1909.57509100051 	(obj:0)
y1(2,3)                              1492.42490899994 	(obj:0)
y1(2,5)                              1492.42490899994 	(obj:0)
y1(3,7)                              1492.42490899994 	(obj:0)
y1(3,9)                              1492.42490899994 	(obj:0)
